c n orig vars 114
p cnf 116 428
1 2 -115 0
3 4 -115 0
5 6 -115 0
7 8 -115 0
9 10 -115 0
11 12 -115 0
13 14 -115 0
15 16 -115 0
17 18 -115 0
19 20 -115 0
21 22 -115 0
23 24 -115 0
25 35 45 55 65 75 85 95 105 -116 0
26 36 46 56 66 76 86 96 106 -116 0
27 37 47 57 67 77 87 97 107 -116 0
28 38 48 58 68 78 88 98 108 -116 0
29 39 49 59 69 79 89 99 109 -116 0
30 40 50 60 70 80 90 100 110 -116 0
31 41 51 61 71 81 91 101 111 -116 0
32 42 52 62 72 82 92 102 112 -116 0
33 43 53 63 73 83 93 103 113 -116 0
34 44 54 64 74 84 94 104 114 -116 0
-25 -26 -116 0
-25 -27 -116 0
-25 -28 -116 0
-25 -29 -116 0
-25 -30 -116 0
-25 -31 -116 0
-25 -32 -116 0
-25 -33 -116 0
-25 -34 -116 0
-26 -27 -116 0
-26 -28 -116 0
-26 -29 -116 0
-26 -30 -116 0
-26 -31 -116 0
-26 -32 -116 0
-26 -33 -116 0
-26 -34 -116 0
-27 -28 -116 0
-27 -29 -116 0
-27 -30 -116 0
-27 -31 -116 0
-27 -32 -116 0
-27 -33 -116 0
-27 -34 -116 0
-28 -29 -116 0
-28 -30 -116 0
-28 -31 -116 0
-28 -32 -116 0
-28 -33 -116 0
-28 -34 -116 0
-29 -30 -116 0
-29 -31 -116 0
-29 -32 -116 0
-29 -33 -116 0
-29 -34 -116 0
-30 -31 -116 0
-30 -32 -116 0
-30 -33 -116 0
-30 -34 -116 0
-31 -32 -116 0
-31 -33 -116 0
-31 -34 -116 0
-32 -33 -116 0
-32 -34 -116 0
-33 -34 -116 0
-35 -36 -116 0
-35 -37 -116 0
-35 -38 -116 0
-35 -39 -116 0
-35 -40 -116 0
-35 -41 -116 0
-35 -42 -116 0
-35 -43 -116 0
-35 -44 -116 0
-36 -37 -116 0
-36 -38 -116 0
-36 -39 -116 0
-36 -40 -116 0
-36 -41 -116 0
-36 -42 -116 0
-36 -43 -116 0
-36 -44 -116 0
-37 -38 -116 0
-37 -39 -116 0
-37 -40 -116 0
-37 -41 -116 0
-37 -42 -116 0
-37 -43 -116 0
-37 -44 -116 0
-38 -39 -116 0
-38 -40 -116 0
-38 -41 -116 0
-38 -42 -116 0
-38 -43 -116 0
-38 -44 -116 0
-39 -40 -116 0
-39 -41 -116 0
-39 -42 -116 0
-39 -43 -116 0
-39 -44 -116 0
-40 -41 -116 0
-40 -42 -116 0
-40 -43 -116 0
-40 -44 -116 0
-41 -42 -116 0
-41 -43 -116 0
-41 -44 -116 0
-42 -43 -116 0
-42 -44 -116 0
-43 -44 -116 0
-45 -46 -116 0
-45 -47 -116 0
-45 -48 -116 0
-45 -49 -116 0
-45 -50 -116 0
-45 -51 -116 0
-45 -52 -116 0
-45 -53 -116 0
-45 -54 -116 0
-46 -47 -116 0
-46 -48 -116 0
-46 -49 -116 0
-46 -50 -116 0
-46 -51 -116 0
-46 -52 -116 0
-46 -53 -116 0
-46 -54 -116 0
-47 -48 -116 0
-47 -49 -116 0
-47 -50 -116 0
-47 -51 -116 0
-47 -52 -116 0
-47 -53 -116 0
-47 -54 -116 0
-48 -49 -116 0
-48 -50 -116 0
-48 -51 -116 0
-48 -52 -116 0
-48 -53 -116 0
-48 -54 -116 0
-49 -50 -116 0
-49 -51 -116 0
-49 -52 -116 0
-49 -53 -116 0
-49 -54 -116 0
-50 -51 -116 0
-50 -52 -116 0
-50 -53 -116 0
-50 -54 -116 0
-51 -52 -116 0
-51 -53 -116 0
-51 -54 -116 0
-52 -53 -116 0
-52 -54 -116 0
-53 -54 -116 0
-55 -56 -116 0
-55 -57 -116 0
-55 -58 -116 0
-55 -59 -116 0
-55 -60 -116 0
-55 -61 -116 0
-55 -62 -116 0
-55 -63 -116 0
-55 -64 -116 0
-56 -57 -116 0
-56 -58 -116 0
-56 -59 -116 0
-56 -60 -116 0
-56 -61 -116 0
-56 -62 -116 0
-56 -63 -116 0
-56 -64 -116 0
-57 -58 -116 0
-57 -59 -116 0
-57 -60 -116 0
-57 -61 -116 0
-57 -62 -116 0
-57 -63 -116 0
-57 -64 -116 0
-58 -59 -116 0
-58 -60 -116 0
-58 -61 -116 0
-58 -62 -116 0
-58 -63 -116 0
-58 -64 -116 0
-59 -60 -116 0
-59 -61 -116 0
-59 -62 -116 0
-59 -63 -116 0
-59 -64 -116 0
-60 -61 -116 0
-60 -62 -116 0
-60 -63 -116 0
-60 -64 -116 0
-61 -62 -116 0
-61 -63 -116 0
-61 -64 -116 0
-62 -63 -116 0
-62 -64 -116 0
-63 -64 -116 0
-65 -66 -116 0
-65 -67 -116 0
-65 -68 -116 0
-65 -69 -116 0
-65 -70 -116 0
-65 -71 -116 0
-65 -72 -116 0
-65 -73 -116 0
-65 -74 -116 0
-66 -67 -116 0
-66 -68 -116 0
-66 -69 -116 0
-66 -70 -116 0
-66 -71 -116 0
-66 -72 -116 0
-66 -73 -116 0
-66 -74 -116 0
-67 -68 -116 0
-67 -69 -116 0
-67 -70 -116 0
-67 -71 -116 0
-67 -72 -116 0
-67 -73 -116 0
-67 -74 -116 0
-68 -69 -116 0
-68 -70 -116 0
-68 -71 -116 0
-68 -72 -116 0
-68 -73 -116 0
-68 -74 -116 0
-69 -70 -116 0
-69 -71 -116 0
-69 -72 -116 0
-69 -73 -116 0
-69 -74 -116 0
-70 -71 -116 0
-70 -72 -116 0
-70 -73 -116 0
-70 -74 -116 0
-71 -72 -116 0
-71 -73 -116 0
-71 -74 -116 0
-72 -73 -116 0
-72 -74 -116 0
-73 -74 -116 0
-75 -76 -116 0
-75 -77 -116 0
-75 -78 -116 0
-75 -79 -116 0
-75 -80 -116 0
-75 -81 -116 0
-75 -82 -116 0
-75 -83 -116 0
-75 -84 -116 0
-76 -77 -116 0
-76 -78 -116 0
-76 -79 -116 0
-76 -80 -116 0
-76 -81 -116 0
-76 -82 -116 0
-76 -83 -116 0
-76 -84 -116 0
-77 -78 -116 0
-77 -79 -116 0
-77 -80 -116 0
-77 -81 -116 0
-77 -82 -116 0
-77 -83 -116 0
-77 -84 -116 0
-78 -79 -116 0
-78 -80 -116 0
-78 -81 -116 0
-78 -82 -116 0
-78 -83 -116 0
-78 -84 -116 0
-79 -80 -116 0
-79 -81 -116 0
-79 -82 -116 0
-79 -83 -116 0
-79 -84 -116 0
-80 -81 -116 0
-80 -82 -116 0
-80 -83 -116 0
-80 -84 -116 0
-81 -82 -116 0
-81 -83 -116 0
-81 -84 -116 0
-82 -83 -116 0
-82 -84 -116 0
-83 -84 -116 0
-85 -86 -116 0
-85 -87 -116 0
-85 -88 -116 0
-85 -89 -116 0
-85 -90 -116 0
-85 -91 -116 0
-85 -92 -116 0
-85 -93 -116 0
-85 -94 -116 0
-86 -87 -116 0
-86 -88 -116 0
-86 -89 -116 0
-86 -90 -116 0
-86 -91 -116 0
-86 -92 -116 0
-86 -93 -116 0
-86 -94 -116 0
-87 -88 -116 0
-87 -89 -116 0
-87 -90 -116 0
-87 -91 -116 0
-87 -92 -116 0
-87 -93 -116 0
-87 -94 -116 0
-88 -89 -116 0
-88 -90 -116 0
-88 -91 -116 0
-88 -92 -116 0
-88 -93 -116 0
-88 -94 -116 0
-89 -90 -116 0
-89 -91 -116 0
-89 -92 -116 0
-89 -93 -116 0
-89 -94 -116 0
-90 -91 -116 0
-90 -92 -116 0
-90 -93 -116 0
-90 -94 -116 0
-91 -92 -116 0
-91 -93 -116 0
-91 -94 -116 0
-92 -93 -116 0
-92 -94 -116 0
-93 -94 -116 0
-95 -96 -116 0
-95 -97 -116 0
-95 -98 -116 0
-95 -99 -116 0
-95 -100 -116 0
-95 -101 -116 0
-95 -102 -116 0
-95 -103 -116 0
-95 -104 -116 0
-96 -97 -116 0
-96 -98 -116 0
-96 -99 -116 0
-96 -100 -116 0
-96 -101 -116 0
-96 -102 -116 0
-96 -103 -116 0
-96 -104 -116 0
-97 -98 -116 0
-97 -99 -116 0
-97 -100 -116 0
-97 -101 -116 0
-97 -102 -116 0
-97 -103 -116 0
-97 -104 -116 0
-98 -99 -116 0
-98 -100 -116 0
-98 -101 -116 0
-98 -102 -116 0
-98 -103 -116 0
-98 -104 -116 0
-99 -100 -116 0
-99 -101 -116 0
-99 -102 -116 0
-99 -103 -116 0
-99 -104 -116 0
-100 -101 -116 0
-100 -102 -116 0
-100 -103 -116 0
-100 -104 -116 0
-101 -102 -116 0
-101 -103 -116 0
-101 -104 -116 0
-102 -103 -116 0
-102 -104 -116 0
-103 -104 -116 0
-105 -106 -116 0
-105 -107 -116 0
-105 -108 -116 0
-105 -109 -116 0
-105 -110 -116 0
-105 -111 -116 0
-105 -112 -116 0
-105 -113 -116 0
-105 -114 -116 0
-106 -107 -116 0
-106 -108 -116 0
-106 -109 -116 0
-106 -110 -116 0
-106 -111 -116 0
-106 -112 -116 0
-106 -113 -116 0
-106 -114 -116 0
-107 -108 -116 0
-107 -109 -116 0
-107 -110 -116 0
-107 -111 -116 0
-107 -112 -116 0
-107 -113 -116 0
-107 -114 -116 0
-108 -109 -116 0
-108 -110 -116 0
-108 -111 -116 0
-108 -112 -116 0
-108 -113 -116 0
-108 -114 -116 0
-109 -110 -116 0
-109 -111 -116 0
-109 -112 -116 0
-109 -113 -116 0
-109 -114 -116 0
-110 -111 -116 0
-110 -112 -116 0
-110 -113 -116 0
-110 -114 -116 0
-111 -112 -116 0
-111 -113 -116 0
-111 -114 -116 0
-112 -113 -116 0
-112 -114 -116 0
-113 -114 -116 0
115 116 0
